submitit INFO (2023-04-30 19:21:44,066) - Starting with JobEnvironment(job_id=27535, hostname=cpunode24, local_rank=0(5), node=0(1), global_rank=0(5))
submitit INFO (2023-04-30 19:21:44,066) - Loading pickle: /h/30/pashootan/Matrix-Mult-CP/src/../logs/2x2x2_6_Apr30_19:21:42/27535_submitted.pkl
 ! --------------------------------------------------- CP Optimizer 22.1.1.0 --
 ! Satisfiability problem - 72 variables, 237 constraints
 ! TimeLimit            = 7200
 ! Workers              = 8
 ! LogPeriod            = 10000000
 ! RandomSeed           = 8534
 ! Initial process time : 0.01s (0.01s extraction + 0.00s propagation)
 !  . Log search space  : 107.1 (before), 107.1 (after)
 !  . Memory usage      : 575.6 kB (before), 575.6 kB (after)
 ! Using parallel search with 8 workers.
 ! ----------------------------------------------------------------------------
 !               Branches  Non-fixed    W       Branch decision
                   10000k          6    4         0  = U1_2
                   10000k          6    1   F    -1  = U0_2
                   10000k          6    5   F     0  = V5_2
                   10000k          6    2         0 != U2_1
                   10000k          6    6         0  = V1_2
                   10000k          6    8        -1 != V3_0
                   10000k          8    3        -1 != V1_1
                   10000k          8    7        -1 != V5_0
                   20000k          6    4        -1  = V0_3
                   20000k          6    5         1  = V3_1
                   20000k          6    2         0 != W5_1
                   20000k          6    1   F     0 != U2_1
                   20000k          6    6   F     1  = V1_1
                   20000k          7    8            -
                   20000k          7    3   F    -1 != V1_1
                   20000k          8    7        -1  = U1_2
                   30000k          6    5   F     1  = U5_2
                   30000k          6    2         1  = W3_1
                   30000k          6    1         0 != U1_2
                   30000k          6    4        -1  = V2_3
 ! Time = 397.45s, Average fail depth = 18, Memory usage = 144.9 MB
 !               Branches  Non-fixed    W       Branch decision
                   30000k          6    6   F     0 != U1_1
                   30000k          7    3   F    -1  = V5_2
                   30000k          6    8   F    -1 != V4_0
                   30000k          8    7        -1  = V0_0
                   40000k          6    5         0 != V1_2
                   40000k          6    2   F     0  = U5_2
                   40000k          6    4   F     1 != U0_2
                   40000k          6    1        -1  = V5_0
                   40000k          6    6   F    -1  = W3_1
                   40000k          6    8   F    -1  = V5_1
                   40000k         10    3         1 != V4_1
                   40000k          9    7        -1 != V3_0
 ! ----------------------------------------------------------------------------
 ! Search completed, model has no solution.
 ! ----------------------------------------------------------------------------
 ! Number of branches     : 356150955
 ! Number of fails        : 175776758
 ! Total memory usage     : 221.5 MB (221.5 MB CP Optimizer + 0.0 MB Concert)
 ! Time spent in solve    : 592.34s (592.34s engine + 0.01s extraction)
 ! Search speed (br. / s) : 601271.2
 ! ----------------------------------------------------------------------------
Infeasible
Saving stats to: /h/30/pashootan/Matrix-Mult-CP/logs/2x2x2_6_Apr30_19:21:42/27535_0_stats.csv
submitit INFO (2023-04-30 19:31:37,017) - Job completed successfully
